100
0   401   401
1   402   401
2   402   402
3   402   402
4   401   401
5   202   201
6   202   202
7   201   202
8   202   201
9   201   202
10   101   101
11   101   101
12   102   101
13   102   101
14   101   102
15   52   51
16   52   51
17   51   52
18   52   51
19   52   51
20   26   27
21   26   27
22   27   26
23   27   27
24   27   27
25   13   14
26   13   14
27   14   13
28   14   14
29   13   14
30   7   7
31   8   8
32   8   7
33   8   7
34   8   8
35   4   4
36   4   4
37   4   4
38   5   5
39   5   5
40   3   2
41   3   2
42   2   3
43   2   3
44   3   2
45   2   2
46   2   2
47   2   1
48   2   2
49   1   1
50   1   1
51   1   2
52   1   1
53   1   1
54   2   1
55   2   1
56   2   1
57   1   2
58   2   1
59   1   1
60   2   1
61   2   2
62   2   2
63   2   2
64   1   1
65   2   2
66   2   2
67   1   2
68   1   2
69   1   2
70   1   1
71   1   2
72   1   1
73   1   2
74   2   1
75   2   1
76   1   2
77   2   2
78   1   2
79   1   1
80   1   2
81   1   1
82   2   2
83   1   2
84   2   1
85   1   1
86   1   2
87   1   1
88   2   1
89   2   1
90   1   2
91   1   2
92   1   2
93   2   2
94   1   2
95   2   2
96   1   1
97   1   2
98   1   2
99   2   1
800
